# LAMMPS input file for Alt_4L_GO membrane simulation
# Based on Schmidt et al. [17] for GO-water interactions
# Generated on 2025-06-18 23:48:51

units real
atom_style full
boundary p p f

# Read data file
read_data data.lammps

# Pair style and coefficients based on literature
pair_style lj/cut 10.0
pair_coeff * * 0.1553 3.166  # GO-water interactions from Schmidt et al.

# Bond styles for molecular water
bond_style harmonic
angle_style harmonic

# Molecular constraints
fix rigid_water water shake 1e-4 20 0 b 1 a 1

# Temperature and pressure control
fix 1 all nvt temp 300.0 300.0 100.0
fix 2 all aveforce NULL NULL -1.0  # Applied pressure gradient

# Output settings
compute temp_water water temp
compute pressure_system all pressure temp_water

thermo_style custom step temp c_temp_water press c_pressure_system pe ke etotal vol
thermo 1000

# Trajectory dump for flux analysis
dump 1 all atom 100 dump.xyz
dump_modify 1 scale no

# Production run for water flux measurement
timestep 1.0
run 50000

# Calculate and output final properties
variable final_temp equal c_temp_water
variable final_press equal c_pressure_system
variable final_pe equal pe
variable final_ke equal ke

print "Final temperature: ${final_temp} K")
print "Final pressure: ${final_press} atm" 
print "Final potential energy: ${final_pe} kcal/mol")
print "Final kinetic energy: ${final_ke} kcal/mol"
